0 299 308
1 1 306
2 246 330
3 632 361
4 44 78
5 251 125
6 83 349
7 615 405
8 39 671
9 26 660
10 260 315
11 49 141
12 256 456
13 6 55
14 496 244
15 437 320
16 89 42
17 92 14
18 29 61
19 92 141
20 652 432
21 183 9
22 284 246
23 195 14
24 763 198
25 435 139
26 7 83
27 112 284
28 12 277
29 406 5
30 2 72
31 227 207
32 389 277
33 37 334
34 521 73
35 753 214
36 4 281
37 104 196
38 54 521
39 446 97
40 425 25
41 177 58
42 269 112
43 216 322
44 436 185
45 309 458
46 21 397
47 389 351
48 546 20
49 139 32
50 560 210
51 141 84
52 202 407
53 328 99
54 638 41
55 57 321
56 101 86
57 328 22
58 577 164
59 352 333
60 78 670
61 607 46